\ Equation counts
\     Total        E        G        L        N        X        C        B
\	79	79	0	0
\
\ Variable counts
\                  x        b        i      s1s      s2s       sc       si
\     Total     cont   binary  integer     sos1     sos2    scont     sint
\	60	60

\ Nonzero counts
\     Total    const       NL      DLL
\
\
Minimize
 obj: [ - 18.5 x_1 * x_1 - 8.5 x_1 * x_6 - 19.5 x_1 * x_11 - 11.5 x_1 * x_14 - 10.0 x_1 * x_19 - 10.5 x_1 * x_22 - 16.5 x_1 * x_31 + 9.0 x_1 * x_35 + 15.5 x_1 * x_43 - 1.0 x_1 * x_55 + 11.0 x_1 * x_59 + 18.0 x_2 * x_7 - 6.5 x_2 * x_11 + 16.0 x_2 * x_13 + 20.5 x_2 * x_14 - 16.0 x_2 * x_22 + 10.5 x_2 * x_24 - 5.0 x_2 * x_27 + 12.0 x_2 * x_30 - 9.0 x_2 * x_40 - 6.5 x_2 * x_42 + 3.0 x_2 * x_56 - 10.5 x_2 * x_59 + 12.0 x_3 * x_17 - 15.5 x_3 * x_21 - 3.5 x_3 * x_28 - 11.0 x_3 * x_37 + 1.5 x_3 * x_38 + 6.0 x_3 * x_48 + 17.5 x_3 * x_50 - 20.0 x_4 * x_4 + 24.5 x_4 * x_5 + 2.0 x_4 * x_6 - 23.5 x_4 * x_10 - 19.5 x_4 * x_15 + 8.5 x_4 * x_16 + 14.5 x_4 * x_17 - 17.5 x_4 * x_19 - 23.0 x_4 * x_26 - 7.5 x_4 * x_31 - 0.5 x_4 * x_34 + 17.5 x_4 * x_39 - 21.5 x_4 * x_43 + 24.0 x_4 * x_50 + 4.0 x_4 * x_51 + 1.0 x_4 * x_53 - 7.5 x_4 * x_56 + 24.5 x_5 * x_4 + 17.0 x_5 * x_7 - 11.5 x_5 * x_14 + 21.0 x_5 * x_28 - 20.0 x_5 * x_33 - 1.5 x_5 * x_41 + 12.5 x_5 * x_44 - 19.5 x_5 * x_54 + 23.5 x_5 * x_58 - 8.5 x_6 * x_1 + 2.0 x_6 * x_4 - 5.0 x_6 * x_12 - 22.5 x_6 * x_21 - 20.5 x_6 * x_24 + 23.0 x_6 * x_31 + 8.5 x_6 * x_34 - 19.0 x_6 * x_36 + 2.5 x_6 * x_48 - 19.0 x_6 * x_53 - 7.0 x_6 * x_60 + 18.0 x_7 * x_2 + 17.0 x_7 * x_5 - 15.0 x_7 * x_8 - 23.0 x_7 * x_17 - 15.5 x_7 * x_32 - 8.5 x_7 * x_36 - 4.0 x_7 * x_42 - 19.0 x_7 * x_43 - 12.5 x_7 * x_51 - 15.0 x_8 * x_7 - 20.0 x_8 * x_11 + 14.0 x_8 * x_13 - 4.5 x_8 * x_16 - 9.5 x_8 * x_17 + 1.5 x_8 * x_35 - 13.5 x_8 * x_36 + 22.5 x_8 * x_37 - 17.5 x_8 * x_43 - 10.5 x_8 * x_50 - 15.0 x_8 * x_57 - 24.5 x_9 * x_28 - 20.0 x_9 * x_30 + 3.5 x_9 * x_34 - 12.5 x_9 * x_37 + 22.5 x_9 * x_43 - 7.5 x_9 * x_51 - 0.5 x_9 * x_58 - 21.5 x_9 * x_60 - 23.5 x_10 * x_4 - 24.0 x_10 * x_15 - 3.5 x_10 * x_16 + 6.5 x_10 * x_17 + 17.5 x_10 * x_23 - 13.0 x_10 * x_27 - 8.0 x_10 * x_28 - 18.0 x_10 * x_31 - 4.5 x_10 * x_37 - 5.5 x_10 * x_41 - 1.0 x_10 * x_42 + 1.0 x_10 * x_49 - 19.5 x_11 * x_1 - 6.5 x_11 * x_2 - 20.0 x_11 * x_8 - 15.0 x_11 * x_15 - 20.0 x_11 * x_23 - 20.0 x_11 * x_30 + 21.0 x_11 * x_31 - 5.0 x_11 * x_36 + 2.0 x_11 * x_38 + 24.5 x_11 * x_41 - 12.0 x_11 * x_46 - 18.5 x_11 * x_56 - 5.0 x_12 * x_6 + 6.5 x_12 * x_16 - 12.0 x_12 * x_17 - 2.5 x_12 * x_18 - 18.5 x_12 * x_24 + 6.5 x_12 * x_41 + 0.5 x_12 * x_45 + 5.5 x_12 * x_46 + 16.0 x_13 * x_2 + 14.0 x_13 * x_8 - 12.0 x_13 * x_24 + 17.5 x_13 * x_26 + 5.0 x_13 * x_43 + 22.5 x_13 * x_45 - 3.5 x_13 * x_54 - 11.5 x_14 * x_1 + 20.5 x_14 * x_2 - 11.5 x_14 * x_5 - 8.5 x_14 * x_22 - 2.5 x_14 * x_26 - 14.0 x_14 * x_27 + 17.5 x_14 * x_28 - 6.5 x_14 * x_30 + 22.0 x_14 * x_33 - 18.0 x_14 * x_40 + 16.5 x_14 * x_45 + 4.5 x_14 * x_48 - 5.0 x_14 * x_51 + 7.5 x_14 * x_57 - 19.5 x_15 * x_4 - 24.0 x_15 * x_10 - 15.0 x_15 * x_11 + 9.0 x_15 * x_16 + 4.5 x_15 * x_18 - 17.5 x_15 * x_19 + 22.0 x_15 * x_23 + 0.5 x_15 * x_24 - 2.0 x_15 * x_28 - 22.0 x_15 * x_41 - 9.5 x_15 * x_46 - 8.0 x_15 * x_48 + 5.5 x_15 * x_54 + 8.0 x_15 * x_56 + 8.5 x_16 * x_4 - 4.5 x_16 * x_8 - 3.5 x_16 * x_10 + 6.5 x_16 * x_12 + 9.0 x_16 * x_15 - 5.5 x_16 * x_17 + 0.5 x_16 * x_18 + 6.5 x_16 * x_19 - 6.0 x_16 * x_22 - 1.0 x_16 * x_28 - 4.0 x_16 * x_52 - 10.5 x_16 * x_59 - 19.0 x_16 * x_60 + 12.0 x_17 * x_3 + 14.5 x_17 * x_4 - 23.0 x_17 * x_7 - 9.5 x_17 * x_8 + 6.5 x_17 * x_10 - 12.0 x_17 * x_12 - 5.5 x_17 * x_16 - 21.0 x_17 * x_24 + 6.5 x_17 * x_30 + 5.5 x_17 * x_33 - 16.0 x_17 * x_38 - 18.5 x_17 * x_44 - 6.5 x_17 * x_46 + 3.0 x_17 * x_51 + 5.5 x_17 * x_55 + 16.5 x_17 * x_58 - 2.5 x_18 * x_12 + 4.5 x_18 * x_15 + 0.5 x_18 * x_16 - 20.5 x_18 * x_19 - 5.5 x_18 * x_23 - 13.0 x_18 * x_26 + 4.0 x_18 * x_36 + 16.5 x_18 * x_38 + 6.0 x_18 * x_40 - 5.0 x_18 * x_44 - 24.0 x_18 * x_51 - 24.5 x_18 * x_56 + 24.5 x_18 * x_59 + 19.0 x_18 * x_60 - 10.0 x_19 * x_1 - 17.5 x_19 * x_4 - 17.5 x_19 * x_15 + 6.5 x_19 * x_16 - 20.5 x_19 * x_18 + 17.5 x_19 * x_22 - 23.5 x_19 * x_23 + 24.5 x_19 * x_31 - 10.5 x_19 * x_33 + 4.0 x_19 * x_36 - 6.5 x_19 * x_37 - 11.0 x_19 * x_43 - 1.5 x_19 * x_46 + 20.5 x_19 * x_49 + 7.0 x_19 * x_56 - 24.5 x_19 * x_60 + 11.5 x_20 * x_44 - 9.0 x_20 * x_51 - 15.5 x_21 * x_3 - 22.5 x_21 * x_6 + 20.0 x_21 * x_29 - 19.5 x_21 * x_53 - 8.0 x_21 * x_60 - 10.5 x_22 * x_1 - 16.0 x_22 * x_2 - 8.5 x_22 * x_14 - 6.0 x_22 * x_16 + 17.5 x_22 * x_19 + 16.5 x_22 * x_22 - 20.5 x_22 * x_23 + 7.0 x_22 * x_24 + 21.0 x_22 * x_26 - 17.0 x_22 * x_42 + 6.0 x_22 * x_44 + 17.5 x_22 * x_45 + 22.5 x_22 * x_49 + 4.5 x_22 * x_55 + 22.0 x_22 * x_59 + 17.5 x_23 * x_10 - 20.0 x_23 * x_11 + 22.0 x_23 * x_15 - 5.5 x_23 * x_18 - 23.5 x_23 * x_19 - 20.5 x_23 * x_22 + 11.0 x_23 * x_25 + 13.5 x_23 * x_28 + 15.5 x_23 * x_43 - 15.5 x_23 * x_44 - 17.5 x_23 * x_46 - 3.0 x_23 * x_49 - 12.5 x_23 * x_53 + 7.0 x_23 * x_55 + 15.5 x_23 * x_57 + 10.5 x_24 * x_2 - 20.5 x_24 * x_6 - 18.5 x_24 * x_12 - 12.0 x_24 * x_13 + 0.5 x_24 * x_15 - 21.0 x_24 * x_17 + 7.0 x_24 * x_22 - 23.0 x_24 * x_26 + 17.0 x_24 * x_27 - 17.5 x_24 * x_29 + 4.0 x_24 * x_31 + 19.0 x_24 * x_33 + 19.0 x_24 * x_35 - 16.5 x_24 * x_46 + 0.5 x_24 * x_51 + 8.5 x_24 * x_54 - 3.0 x_24 * x_59 + 11.0 x_25 * x_23 - 4.0 x_25 * x_26 + 23.0 x_25 * x_28 - 0.5 x_25 * x_30 - 8.0 x_25 * x_31 - 4.0 x_25 * x_37 - 2.0 x_25 * x_44 - 11.0 x_25 * x_54 + 8.5 x_25 * x_55 - 23.0 x_26 * x_4 + 17.5 x_26 * x_13 - 2.5 x_26 * x_14 - 13.0 x_26 * x_18 + 21.0 x_26 * x_22 - 23.0 x_26 * x_24 - 4.0 x_26 * x_25 + 22.0 x_26 * x_28 - 4.0 x_26 * x_34 + 24.0 x_26 * x_42 - 6.0 x_26 * x_43 + 15.0 x_26 * x_44 + 15.5 x_26 * x_48 - 10.0 x_26 * x_49 - 0.5 x_26 * x_53 + 7.0 x_26 * x_54 + 2.5 x_26 * x_55 - 5.0 x_27 * x_2 - 13.0 x_27 * x_10 - 14.0 x_27 * x_14 + 17.0 x_27 * x_24 + 0.5 x_27 * x_34 + 4.0 x_27 * x_37 + 10.0 x_27 * x_42 + 6.5 x_27 * x_44 - 0.5 x_27 * x_49 - 4.0 x_27 * x_58 - 3.5 x_28 * x_3 + 21.0 x_28 * x_5 - 24.5 x_28 * x_9 - 8.0 x_28 * x_10 + 17.5 x_28 * x_14 - 2.0 x_28 * x_15 - 1.0 x_28 * x_16 + 13.5 x_28 * x_23 + 23.0 x_28 * x_25 + 22.0 x_28 * x_26 + 4.0 x_28 * x_28 + 24.5 x_28 * x_36 - 21.5 x_28 * x_48 + 23.5 x_28 * x_50 + 19.5 x_28 * x_51 + 10.0 x_28 * x_55 - 1.0 x_28 * x_56 + 13.5 x_28 * x_57 + 18.0 x_28 * x_58 + 20.0 x_29 * x_21 - 17.5 x_29 * x_24 + 0.5 x_29 * x_36 + 12.5 x_29 * x_39 - 5.5 x_29 * x_43 - 8.0 x_29 * x_53 + 12.0 x_30 * x_2 - 20.0 x_30 * x_9 - 20.0 x_30 * x_11 - 6.5 x_30 * x_14 + 6.5 x_30 * x_17 - 0.5 x_30 * x_25 + 7.5 x_30 * x_36 + 11.5 x_30 * x_40 + 19.0 x_30 * x_47 + 24.5 x_30 * x_55 - 16.5 x_31 * x_1 - 7.5 x_31 * x_4 + 23.0 x_31 * x_6 - 18.0 x_31 * x_10 + 21.0 x_31 * x_11 + 24.5 x_31 * x_19 + 4.0 x_31 * x_24 - 8.0 x_31 * x_25 - 4.0 x_31 * x_32 + 20.0 x_31 * x_35 + 15.5 x_31 * x_49 + 23.5 x_31 * x_51 - 21.0 x_31 * x_52 - 15.5 x_32 * x_7 - 4.0 x_32 * x_31 + 14.5 x_32 * x_34 - 5.0 x_32 * x_37 - 18.0 x_32 * x_40 + 3.0 x_32 * x_46 - 1.0 x_32 * x_49 + 6.5 x_32 * x_56 + 14.5 x_32 * x_58 - 22.5 x_32 * x_59 - 3.5 x_32 * x_60 - 20.0 x_33 * x_5 + 22.0 x_33 * x_14 + 5.5 x_33 * x_17 - 10.5 x_33 * x_19 + 19.0 x_33 * x_24 + 0.5 x_33 * x_35 + 23.5 x_33 * x_47 - 13.5 x_33 * x_53 - 7.5 x_33 * x_56 + 0.5 x_33 * x_59 - 16.5 x_33 * x_60 - 0.5 x_34 * x_4 + 8.5 x_34 * x_6 + 3.5 x_34 * x_9 - 4.0 x_34 * x_26 + 0.5 x_34 * x_27 + 14.5 x_34 * x_32 - 21.5 x_34 * x_40 - 13.0 x_34 * x_44 + 0.5 x_34 * x_47 - 7.0 x_34 * x_50 - 16.0 x_34 * x_60 + 9.0 x_35 * x_1 + 1.5 x_35 * x_8 + 19.0 x_35 * x_24 + 20.0 x_35 * x_31 + 0.5 x_35 * x_33 + 17.0 x_35 * x_38 - 24.0 x_35 * x_40 + 8.0 x_35 * x_41 + 13.5 x_35 * x_44 - 3.0 x_35 * x_53 + 21.0 x_35 * x_55 - 18.0 x_35 * x_56 - 14.5 x_35 * x_57 - 19.0 x_36 * x_6 - 8.5 x_36 * x_7 - 13.5 x_36 * x_8 - 5.0 x_36 * x_11 + 4.0 x_36 * x_18 + 4.0 x_36 * x_19 + 24.5 x_36 * x_28 + 0.5 x_36 * x_29 + 7.5 x_36 * x_30 + 5.5 x_36 * x_37 + 4.5 x_36 * x_45 - 13.5 x_36 * x_47 - 5.5 x_36 * x_50 + 8.5 x_36 * x_56 + 15.5 x_36 * x_59 - 11.0 x_37 * x_3 + 22.5 x_37 * x_8 - 12.5 x_37 * x_9 - 4.5 x_37 * x_10 - 6.5 x_37 * x_19 - 4.0 x_37 * x_25 + 4.0 x_37 * x_27 - 5.0 x_37 * x_32 + 5.5 x_37 * x_36 - 18.5 x_37 * x_37 + 2.5 x_37 * x_43 + 18.0 x_37 * x_45 + 4.0 x_37 * x_46 + 21.5 x_37 * x_47 + 6.5 x_37 * x_50 - 19.0 x_37 * x_52 - 16.0 x_37 * x_58 + 11.5 x_37 * x_60 + 1.5 x_38 * x_3 + 2.0 x_38 * x_11 - 16.0 x_38 * x_17 + 16.5 x_38 * x_18 + 17.0 x_38 * x_35 - 7.0 x_38 * x_40 - 7.0 x_38 * x_43 - 23.5 x_38 * x_52 + 8.5 x_38 * x_54 - 11.0 x_38 * x_55 - 20.5 x_38 * x_58 + 17.5 x_39 * x_4 + 12.5 x_39 * x_29 - 23.5 x_39 * x_55 - 11.5 x_39 * x_57 - 9.0 x_40 * x_2 - 18.0 x_40 * x_14 + 6.0 x_40 * x_18 + 11.5 x_40 * x_30 - 18.0 x_40 * x_32 - 21.5 x_40 * x_34 - 24.0 x_40 * x_35 - 7.0 x_40 * x_38 + 16.0 x_40 * x_41 - 12.5 x_40 * x_44 - 12.5 x_40 * x_55 + 15.0 x_40 * x_60 - 1.5 x_41 * x_5 - 5.5 x_41 * x_10 + 24.5 x_41 * x_11 + 6.5 x_41 * x_12 - 22.0 x_41 * x_15 + 8.0 x_41 * x_35 + 16.0 x_41 * x_40 + 12.5 x_41 * x_41 - 21.5 x_41 * x_49 - 6.0 x_41 * x_54 + 1.5 x_41 * x_55 - 6.5 x_42 * x_2 - 4.0 x_42 * x_7 - 1.0 x_42 * x_10 - 17.0 x_42 * x_22 + 24.0 x_42 * x_26 + 10.0 x_42 * x_27 - 7.0 x_42 * x_44 - 17.5 x_42 * x_59 + 15.5 x_43 * x_1 - 21.5 x_43 * x_4 - 19.0 x_43 * x_7 - 17.5 x_43 * x_8 + 22.5 x_43 * x_9 + 5.0 x_43 * x_13 - 11.0 x_43 * x_19 + 15.5 x_43 * x_23 - 6.0 x_43 * x_26 - 5.5 x_43 * x_29 + 2.5 x_43 * x_37 - 7.0 x_43 * x_38 - 11.5 x_43 * x_46 + 2.0 x_43 * x_55 - 2.0 x_43 * x_57 + 12.5 x_44 * x_5 - 18.5 x_44 * x_17 - 5.0 x_44 * x_18 + 11.5 x_44 * x_20 + 6.0 x_44 * x_22 - 15.5 x_44 * x_23 - 2.0 x_44 * x_25 + 15.0 x_44 * x_26 + 6.5 x_44 * x_27 - 13.0 x_44 * x_34 + 13.5 x_44 * x_35 - 12.5 x_44 * x_40 - 7.0 x_44 * x_42 + 1.5 x_44 * x_46 - 14.5 x_44 * x_53 - 11.5 x_44 * x_59 + 0.5 x_45 * x_12 + 22.5 x_45 * x_13 + 16.5 x_45 * x_14 + 17.5 x_45 * x_22 + 4.5 x_45 * x_36 + 18.0 x_45 * x_37 + 6.5 x_45 * x_48 + 2.0 x_45 * x_50 - 19.0 x_45 * x_51 + 18.0 x_45 * x_53 - 20.5 x_45 * x_58 - 12.0 x_46 * x_11 + 5.5 x_46 * x_12 - 9.5 x_46 * x_15 - 6.5 x_46 * x_17 - 1.5 x_46 * x_19 - 17.5 x_46 * x_23 - 16.5 x_46 * x_24 + 3.0 x_46 * x_32 + 4.0 x_46 * x_37 - 11.5 x_46 * x_43 + 1.5 x_46 * x_44 - 5.0 x_46 * x_55 + 3.5 x_46 * x_58 + 19.0 x_47 * x_30 + 23.5 x_47 * x_33 + 0.5 x_47 * x_34 - 13.5 x_47 * x_36 + 21.5 x_47 * x_37 - 10.5 x_47 * x_59 + 6.0 x_48 * x_3 + 2.5 x_48 * x_6 + 4.5 x_48 * x_14 - 8.0 x_48 * x_15 + 15.5 x_48 * x_26 - 21.5 x_48 * x_28 + 6.5 x_48 * x_45 + 7.0 x_48 * x_49 - 19.0 x_48 * x_58 + 8.5 x_48 * x_60 + 1.0 x_49 * x_10 + 20.5 x_49 * x_19 + 22.5 x_49 * x_22 - 3.0 x_49 * x_23 - 10.0 x_49 * x_26 - 0.5 x_49 * x_27 + 15.5 x_49 * x_31 - 1.0 x_49 * x_32 - 21.5 x_49 * x_41 + 7.0 x_49 * x_48 + 15.5 x_49 * x_55 + 9.0 x_49 * x_59 + 17.5 x_50 * x_3 + 24.0 x_50 * x_4 - 10.5 x_50 * x_8 + 23.5 x_50 * x_28 - 7.0 x_50 * x_34 - 5.5 x_50 * x_36 + 6.5 x_50 * x_37 + 2.0 x_50 * x_45 + 10.0 x_50 * x_52 - 19.0 x_50 * x_55 + 4.0 x_51 * x_4 - 12.5 x_51 * x_7 - 7.5 x_51 * x_9 - 5.0 x_51 * x_14 + 3.0 x_51 * x_17 - 24.0 x_51 * x_18 - 9.0 x_51 * x_20 + 0.5 x_51 * x_24 + 19.5 x_51 * x_28 + 23.5 x_51 * x_31 - 19.0 x_51 * x_45 - 23.0 x_51 * x_56 + 2.5 x_51 * x_58 - 4.0 x_52 * x_16 - 21.0 x_52 * x_31 - 19.0 x_52 * x_37 - 23.5 x_52 * x_38 + 10.0 x_52 * x_50 - 10.0 x_52 * x_52 + 5.5 x_52 * x_56 - 16.5 x_52 * x_57 + 1.0 x_53 * x_4 - 19.0 x_53 * x_6 - 19.5 x_53 * x_21 - 12.5 x_53 * x_23 - 0.5 x_53 * x_26 - 8.0 x_53 * x_29 - 13.5 x_53 * x_33 - 3.0 x_53 * x_35 - 14.5 x_53 * x_44 + 18.0 x_53 * x_45 - 16.5 x_53 * x_53 + 16.5 x_53 * x_57 + 11.0 x_53 * x_58 - 19.5 x_54 * x_5 - 3.5 x_54 * x_13 + 5.5 x_54 * x_15 + 8.5 x_54 * x_24 - 11.0 x_54 * x_25 + 7.0 x_54 * x_26 + 8.5 x_54 * x_38 - 6.0 x_54 * x_41 - 19.5 x_54 * x_56 - 1.0 x_55 * x_1 + 5.5 x_55 * x_17 + 4.5 x_55 * x_22 + 7.0 x_55 * x_23 + 8.5 x_55 * x_25 + 2.5 x_55 * x_26 + 10.0 x_55 * x_28 + 24.5 x_55 * x_30 + 21.0 x_55 * x_35 - 11.0 x_55 * x_38 - 23.5 x_55 * x_39 - 12.5 x_55 * x_40 + 1.5 x_55 * x_41 + 2.0 x_55 * x_43 - 5.0 x_55 * x_46 + 15.5 x_55 * x_49 - 19.0 x_55 * x_50 - 23.5 x_55 * x_57 + 3.0 x_56 * x_2 - 7.5 x_56 * x_4 - 18.5 x_56 * x_11 + 8.0 x_56 * x_15 - 24.5 x_56 * x_18 + 7.0 x_56 * x_19 - 1.0 x_56 * x_28 + 6.5 x_56 * x_32 - 7.5 x_56 * x_33 - 18.0 x_56 * x_35 + 8.5 x_56 * x_36 - 23.0 x_56 * x_51 + 5.5 x_56 * x_52 - 19.5 x_56 * x_54 - 13.5 x_56 * x_57 + 8.5 x_56 * x_59 - 15.0 x_57 * x_8 + 7.5 x_57 * x_14 + 15.5 x_57 * x_23 + 13.5 x_57 * x_28 - 14.5 x_57 * x_35 - 11.5 x_57 * x_39 - 2.0 x_57 * x_43 - 16.5 x_57 * x_52 + 16.5 x_57 * x_53 - 23.5 x_57 * x_55 - 13.5 x_57 * x_56 - 11.5 x_57 * x_58 + 14.0 x_57 * x_59 + 23.5 x_58 * x_5 - 0.5 x_58 * x_9 + 16.5 x_58 * x_17 - 4.0 x_58 * x_27 + 18.0 x_58 * x_28 + 14.5 x_58 * x_32 - 16.0 x_58 * x_37 - 20.5 x_58 * x_38 - 20.5 x_58 * x_45 + 3.5 x_58 * x_46 - 19.0 x_58 * x_48 + 2.5 x_58 * x_51 + 11.0 x_58 * x_53 - 11.5 x_58 * x_57 + 11.0 x_59 * x_1 - 10.5 x_59 * x_2 - 10.5 x_59 * x_16 + 24.5 x_59 * x_18 + 22.0 x_59 * x_22 - 3.0 x_59 * x_24 - 22.5 x_59 * x_32 + 0.5 x_59 * x_33 + 15.5 x_59 * x_36 - 17.5 x_59 * x_42 - 11.5 x_59 * x_44 - 10.5 x_59 * x_47 + 9.0 x_59 * x_49 + 8.5 x_59 * x_56 + 14.0 x_59 * x_57 - 7.0 x_60 * x_6 - 21.5 x_60 * x_9 - 19.0 x_60 * x_16 + 19.0 x_60 * x_18 - 24.5 x_60 * x_19 - 8.0 x_60 * x_21 - 3.5 x_60 * x_32 - 16.5 x_60 * x_33 - 16.0 x_60 * x_34 + 11.5 x_60 * x_37 + 15.0 x_60 * x_40 + 8.5 x_60 * x_48 ] + 39.0 x_1 + 0.0 x_2 + 0.0 x_3 + 0.0 x_4 + 0.0 x_5 + 0.0 x_6 + 0.0 x_7 + 0.0 x_8 + 0.0 x_9 + 0.0 x_10 + 0.0 x_11 + 0.0 x_12 + 0.0 x_13 + 0.0 x_14 + 0.0 x_15 + 0.0 x_16 + 18.0 x_17 - 20.0 x_18 + 0.0 x_19 + 0.0 x_20 + 0.0 x_21 + 42.0 x_22 + 0.0 x_23 + 0.0 x_24 + 0.0 x_25 + 0.0 x_26 + 0.0 x_27 + 0.0 x_28 + 0.0 x_29 + 0.0 x_30 + 0.0 x_31 - 35.0 x_32 + 0.0 x_33 + 0.0 x_34 + 49.0 x_35 + 0.0 x_36 + 17.0 x_37 + 0.0 x_38 + 0.0 x_39 + 0.0 x_40 + 0.0 x_41 + 0.0 x_42 + 0.0 x_43 + 0.0 x_44 + 0.0 x_45 + 0.0 x_46 + 25.0 x_47 + 40.0 x_48 + 0.0 x_49 + 6.0 x_50 + 0.0 x_51 + 0.0 x_52 + 0.0 x_53 + 0.0 x_54 + 0.0 x_55 + 0.0 x_56 + 0.0 x_57 + 0.0 x_58 + 0.0 x_59 + 0.0 x_60

Subject To
 e2: [  x_1 * x_6 ] = 0.0
 e3: [  x_1 * x_19 ] = 0.0
 e4: [  x_1 * x_59 ] = 0.0
 e5: [  x_2 * x_7 ] = 0.0
 e6: [  x_2 * x_27 ] = 0.0
 e7: [  x_3 * x_37 ] = 0.0
 e8: [  x_4 * x_15 ] = 0.0
 e9: [  x_4 * x_51 ] = 0.0
 e10: [  x_5 * x_7 ] = 0.0
 e11: [  x_5 * x_44 ] = 0.0
 e12: [  x_6 * x_12 ] = 0.0
 e13: [  x_8 * x_50 ] = 0.0
 e14: [  x_10 * x_16 ] = 0.0
 e15: [  x_10 * x_27 ] = 0.0
 e16: [  x_10 * x_42 ] = 0.0
 e17: [  x_11 * x_56 ] = 0.0
 e18: [  x_12 * x_45 ] = 0.0
 e19: [  x_14 * x_28 ] = 0.0
 e20: [  x_17 * x_4 ] = 0.0
 e21: [  x_17 * x_16 ] = 0.0
 e22: [  x_17 * x_55 ] = 0.0
 e23: [  x_18 * x_56 ] = 0.0
 e24: [  x_19 * x_18 ] = 0.0
 e25: [  x_19 * x_56 ] = 0.0
 e26: [  x_22 * x_26 ] = 0.0
 e27: [  x_22 * x_45 ] = 0.0
 e28: [  x_22 * x_59 ] = 0.0
 e29: [  x_23 * x_55 ] = 0.0
 e30: [  x_24 * x_26 ] = 0.0
 e31: [  x_26 * x_28 ] = 0.0
 e32: [  x_27 * x_2 ] = 0.0
 e33: [  x_27 * x_14 ] = 0.0
 e34: [  x_28 * x_16 ] = 0.0
 e35: [  x_28 * x_56 ] = 0.0
 e36: [  x_29 * x_39 ] = 0.0
 e37: [  x_30 * x_9 ] = 0.0
 e38: [  x_30 * x_11 ] = 0.0
 e39: [  x_30 * x_47 ] = 0.0
 e40: [  x_32 * x_59 ] = 0.0
 e41: [  x_33 * x_56 ] = 0.0
 e42: [  x_35 * x_57 ] = 0.0
 e43: [  x_36 * x_8 ] = 0.0
 e44: [  x_38 * x_35 ] = 0.0
 e45: [  x_38 * x_55 ] = 0.0
 e46: [  x_39 * x_55 ] = 0.0
 e47: [  x_39 * x_57 ] = 0.0
 e48: [  x_40 * x_30 ] = 0.0
 e49: [  x_40 * x_34 ] = 0.0
 e50: [  x_40 * x_60 ] = 0.0
 e51: [  x_41 * x_40 ] = 0.0
 e52: [  x_42 * x_2 ] = 0.0
 e53: [  x_42 * x_22 ] = 0.0
 e54: [  x_43 * x_7 ] = 0.0
 e55: [  x_43 * x_46 ] = 0.0
 e56: [  x_45 * x_14 ] = 0.0
 e57: [  x_45 * x_36 ] = 0.0
 e58: [  x_45 * x_53 ] = 0.0
 e59: [  x_48 * x_15 ] = 0.0
 e60: [  x_49 * x_10 ] = 0.0
 e61: [  x_49 * x_48 ] = 0.0
 e62: [  x_50 * x_28 ] = 0.0
 e63: [  x_51 * x_45 ] = 0.0
 e64: [  x_53 * x_23 ] = 0.0
 e65: [  x_53 * x_53 ] = 0.0
 e66: [  x_54 * x_41 ] = 0.0
 e67: [  x_55 * x_17 ] = 0.0
 e68: [  x_55 * x_43 ] = 0.0
 e69: [  x_55 * x_46 ] = 0.0
 e70: [  x_56 * x_28 ] = 0.0
 e71: [  x_56 * x_35 ] = 0.0
 e72: [  x_56 * x_36 ] = 0.0
 e73: [  x_57 * x_35 ] = 0.0
 e74: [  x_57 * x_52 ] = 0.0
 e75: [  x_59 * x_16 ] = 0.0
 e76: [  x_59 * x_18 ] = 0.0
 e77: [  x_59 * x_33 ] = 0.0
 e78: [  x_59 * x_56 ] = 0.0
 e79: [  x_59 * x_57 ] = 0.0
 e80: [  x_60 * x_18 ] = 0.0

Bounds
 x_1 <= 1.0
 x_2 <= 1.0
 x_3 <= 1.0
 x_4 <= 1.0
 x_5 <= 1.0
 x_6 <= 1.0
 x_7 <= 1.0
 x_8 <= 1.0
 x_9 <= 1.0
 x_10 <= 1.0
 x_11 <= 1.0
 x_12 <= 1.0
 x_13 <= 1.0
 x_14 <= 1.0
 x_15 <= 1.0
 x_16 <= 1.0
 x_17 <= 1.0
 x_18 <= 1.0
 x_19 <= 1.0
 x_20 <= 1.0
 x_21 <= 1.0
 x_22 <= 1.0
 x_23 <= 1.0
 x_24 <= 1.0
 x_25 <= 1.0
 x_26 <= 1.0
 x_27 <= 1.0
 x_28 <= 1.0
 x_29 <= 1.0
 x_30 <= 1.0
 x_31 <= 1.0
 x_32 <= 1.0
 x_33 <= 1.0
 x_34 <= 1.0
 x_35 <= 1.0
 x_36 <= 1.0
 x_37 <= 1.0
 x_38 <= 1.0
 x_39 <= 1.0
 x_40 <= 1.0
 x_41 <= 1.0
 x_42 <= 1.0
 x_43 <= 1.0
 x_44 <= 1.0
 x_45 <= 1.0
 x_46 <= 1.0
 x_47 <= 1.0
 x_48 <= 1.0
 x_49 <= 1.0
 x_50 <= 1.0
 x_51 <= 1.0
 x_52 <= 1.0
 x_53 <= 1.0
 x_54 <= 1.0
 x_55 <= 1.0
 x_56 <= 1.0
 x_57 <= 1.0
 x_58 <= 1.0
 x_59 <= 1.0
 x_60 <= 1.0

End